StudentsNr = 5;
InstructorsNr = 8;
DaysNr = 1;
SlotsPerDay = 8;
AvailabilitySlotsLenght = 2;
RoomNr = 2;
ProgrammNr = 1;
DegreeNr = 2;
RolesNr = 3;
CoursesNr = 5;
InstructorsProgramm = [{1}, {1}, {1}, {1}, {1}, {1}, {1}, {1}];
InstructorRolesPerProgramm = [|{4, 5, 7}, {6}, {3, 5}|];
InstructorsAvailability = [|0, 0, 0, 0, |0, 0, 0, 1, |0, 0, 1, 0, |1, 1, 1, 1, |0, 0, 0, 1, |1, 1, 1, 1, |1, 1, 1, 1, |1, 1, 1, 1|];
StudentsProgramm = [1, 1, 1, 1, 1];
StudentsDegree = [1, 2, 2, 2, 1];
StudentsSupervisorId = [3, 5, 1, 7, 6];
StudentsCourseIds = [{1, 3, 4, 5}, {}, {}, {}, {1, 3, 4, 5}];
StudentsAvailability = [|0, 1, 1, 1, |1, 1, 1, 1, |0, 0, 0, 1, |1, 1, 1, 1, |0, 0, 0, 1|];
TheoryticalMinCard = [0, 0, 1, 0, 0];
CoursesInstructorIds = [{1, 2, 4, 8}, {1}, {2, 4, 5, 6, 7}, {1, 6, 7}, {7}];
RolesDemands = [3, 1, 1];
RolesContinuity = [1, 2];
ExamLen = [2, 1, 1, 1, 2];
LunchTsMinLen = 1;
LunchStarts = [4..5];
SupervisorAvailable = 5;
OptimalLunchLenght = [2, 2];
OptimalStartTs = [1, 2];
OptimalFinishTs = [1, 7];
MinimizeRooms = 300;
RolesSoftContinuity = [|1, 2, 3|0, 2, 1|];
SameDegreeInRoom = 0;
Mergeability = 1;
